0 9266.87
1 9266.87
2 9266.87
3 9266.87
4 9205.13
5 8897.37
6 8843.91
7 8843.91
8 8838.76
9 8750.71
10 8749.85
11 8564.94
12 8564.53
13 8466.67
14 8416.62
15 8416.62
16 8408.43
17 8408.43
18 8407.66
19 8384.49
20 8355.25
21 8328.92
22 8219.43
23 8219.43
24 8219.43
25 8209.77
26 8209.77
27 8133.33
28 8133.33
29 8133.33
30 8133.33
31 8133.33
32 8126.52
33 8126.52
34 8097.65
35 8075.71
36 8055.70
37 8050.68
38 8050.68
39 8050.68
40 8050.68
41 8050.68
42 8009.98
43 8009.98
44 7962.78
45 7962.78
46 7962.78
47 7846.46
48 7846.46
49 7846.46
50 7707.23
51 7707.23
52 7707.23
53 7707.23
54 7623.44
55 7623.44
56 7619.49
57 7619.49
58 7530.67
59 7530.67
60 7530.67
61 7530.67
62 7530.67
63 7530.67
64 7530.67
65 7530.67
66 7530.67
67 7530.67
68 7530.67
69 7530.67
70 7530.67
71 7530.67
72 7530.67
73 7530.67
74 7527.34
75 7527.34
76 7527.34
77 7527.34
78 7479.91
79 7479.91
80 7479.91
81 7470.39
82 7470.39
83 7470.39
84 7470.39
85 7470.39
86 7399.11
87 7399.11
88 7395.92
89 7370.47
90 7370.47
91 7370.47
92 7247.44
93 7247.44
94 7247.44
95 7247.44
96 7247.44
97 7247.44
98 7247.44
99 7247.44
100 7204.30
101 7204.30
102 7204.30
103 7204.30
104 7204.30
105 7204.30
106 7204.30
107 7204.30
108 7201.77
109 7201.77
110 7197.90
111 7197.90
112 7197.90
113 7197.90
114 7197.90
115 7197.90
116 7197.90
117 7197.90
118 7197.90
119 7197.90
120 7197.90
121 7197.90
122 7197.90
123 7197.90
124 7050.61
125 7050.61
126 7050.61
127 7050.61
128 7050.61
129 7050.61
130 7050.61
131 7050.61
132 7050.61
133 7050.61
134 7050.61
135 7050.61
136 7050.61
137 7050.61
138 7050.61
139 7050.61
140 7050.61
141 7050.61
142 7050.61
143 7050.61
144 7050.61
145 7050.61
146 7050.61
147 7050.61
148 7050.61
149 7050.61
150 7050.61
151 7050.61
152 7026.33
153 7026.33
154 7026.33
155 7026.33
156 7026.33
157 7026.33
158 7026.33
159 7026.33
160 7026.33
161 7026.33
162 7026.33
163 7026.33
164 6993.80
165 6993.80
166 6993.80
167 6993.80
168 6977.99
169 6977.99
170 6977.99
171 6977.99
172 6966.07
173 6966.07
174 6966.07
175 6966.07
176 6966.07
177 6966.07
178 6966.07
179 6966.07
180 6966.07
181 6966.07
182 6924.30
183 6924.30
184 6918.06
185 6918.06
186 6918.06
187 6918.06
188 6918.06
189 6918.06
190 6918.06
191 6918.06
192 6918.06
193 6918.06
194 6918.06
195 6918.06
196 6918.06
197 6918.06
198 6918.06
199 6918.06
200 6918.06
201 6918.06
202 6891.08
203 6891.08
204 6891.08
205 6871.10
206 6871.10
207 6871.10
208 6871.10
209 6871.10
210 6842.38
211 6842.38
212 6842.38
213 6842.38
214 6842.38
215 6842.38
216 6842.38
217 6835.98
218 6835.98
219 6835.98
220 6835.98
221 6835.98
222 6835.98
223 6835.98
224 6835.98
225 6835.98
226 6811.43
227 6811.43
228 6811.43
229 6811.43
230 6811.43
231 6786.80
232 6786.80
233 6786.80
234 6786.80
235 6786.80
236 6786.80
237 6786.80
238 6769.95
239 6769.95
240 6769.95
241 6769.95
242 6769.95
243 6769.95
244 6769.95
245 6762.80
246 6762.80
247 6762.80
248 6762.80
249 6762.80
250 6762.80
251 6762.80
252 6762.80
253 6762.80
254 6762.80
255 6762.80
256 6762.80
257 6762.80
258 6762.80
259 6762.80
260 6762.80
261 6762.80
262 6762.80
263 6762.80
264 6762.80
265 6762.80
266 6762.80
267 6762.80
268 6762.80
269 6762.80
270 6762.80
271 6762.80
272 6762.80
273 6761.51
274 6761.51
275 6761.51
276 6761.51
277 6759.65
278 6759.65
279 6759.65
280 6759.65
281 6759.65
282 6759.65
283 6759.65
284 6759.65
285 6759.65
286 6759.65
287 6759.65
288 6759.65
289 6759.65
290 6759.65
291 6759.65
292 6731.45
293 6731.45
294 6713.48
295 6713.48
296 6713.48
297 6713.48
298 6713.48
299 6713.48
300 6713.48
301 6713.48
302 6713.48
303 6713.48
304 6713.48
305 6713.48
306 6713.48
307 6713.48
308 6713.48
309 6713.48
310 6713.48
311 6713.48
312 6713.48
313 6713.48
314 6713.48
315 6713.48
316 6713.48
317 6713.48
318 6713.48
319 6713.48
320 6713.48
321 6713.48
322 6713.48
323 6713.48
324 6713.48
325 6713.48
326 6713.48
327 6713.48
328 6702.82
329 6702.82
330 6702.82
331 6702.82
332 6702.82
333 6702.82
334 6702.82
335 6702.82
336 6702.82
337 6702.82
338 6702.82
339 6702.82
340 6702.82
341 6702.82
342 6702.82
343 6702.82
344 6702.82
345 6702.82
346 6702.82
347 6702.82
348 6702.82
349 6702.82
350 6702.82
351 6702.82
352 6702.82
353 6702.82
354 6685.81
355 6685.81
356 6685.81
357 6685.81
358 6685.81
359 6685.81
360 6685.81
361 6672.93
362 6672.93
363 6672.93
364 6672.93
365 6672.93
366 6672.93
367 6672.93
368 6672.93
369 6667.71
370 6667.71
371 6667.71
372 6667.71
373 6667.71
374 6667.71
375 6667.71
376 6667.71
377 6667.71
378 6667.71
379 6667.71
380 6667.71
381 6667.71
382 6667.71
383 6667.71
384 6667.71
385 6667.71
386 6667.71
387 6667.71
388 6667.71
389 6667.71
390 6667.71
391 6667.71
392 6667.71
393 6667.71
394 6657.91
395 6657.91
396 6657.19
397 6657.19
398 6657.19
399 6657.19
400 6657.19
401 6657.19
402 6657.19
403 6657.19
404 6657.19
405 6656.14
406 6656.14
407 6656.14
408 6656.14
409 6656.14
410 6656.14
411 6656.14
412 6656.14
413 6656.14
414 6656.14
415 6656.14
416 6656.14
417 6656.14
418 6656.14
419 6656.14
420 6656.14
421 6656.14
422 6656.14
423 6656.14
424 6656.14
425 6656.14
426 6656.14
427 6656.14
428 6656.14
429 6656.14
430 6656.14
431 6656.14
432 6656.14
433 6656.14
434 6656.14
435 6656.14
436 6656.14
437 6656.14
438 6656.14
439 6629.78
440 6629.78
441 6629.78
442 6629.78
443 6629.78
444 6629.78
445 6629.78
446 6629.78
447 6629.78
448 6629.78
449 6629.78
450 6629.78
451 6629.78
452 6629.78
453 6629.78
454 6629.78
455 6629.78
456 6629.78
457 6629.78
458 6629.78
459 6629.78
460 6629.78
461 6629.78
462 6629.78
463 6629.78
464 6629.78
465 6629.78
466 6629.78
467 6629.78
468 6620.04
469 6620.04
470 6620.04
471 6592.52
472 6592.52
473 6592.52
474 6592.52
475 6592.52
476 6592.52
477 6592.52
478 6592.52
479 6592.52
480 6592.52
481 6592.52
482 6592.52
483 6592.52
484 6592.52
485 6592.52
486 6592.52
487 6592.52
488 6592.52
489 6592.52
490 6592.52
491 6592.52
492 6592.52
493 6592.52
494 6592.52
495 6592.52
496 6592.52
497 6592.52
498 6548.94
499 6548.94
500 6548.94
501 6548.94
502 6548.94
503 6548.94
504 6548.94
505 6548.94
506 6548.94
507 6548.94
508 6548.94
509 6548.94
510 6548.94
511 6548.94
512 6548.94
513 6548.94
514 6548.94
515 6548.94
516 6548.94
517 6548.94
518 6548.94
519 6548.94
520 6548.94
521 6548.94
522 6548.94
523 6548.94
524 6548.94
525 6548.94
526 6548.94
527 6548.94
528 6548.94
529 6548.94
530 6548.94
531 6548.94
532 6548.94
533 6548.94
534 6548.94
535 6548.94
536 6548.94
537 6548.94
538 6548.94
539 6548.54
540 6548.54
541 6548.54
542 6548.54
543 6548.54
544 6548.54
545 6548.54
546 6548.54
547 6548.54
548 6548.54
549 6548.54
550 6548.54
551 6546.79
552 6546.79
553 6546.79
554 6546.79
555 6546.79
556 6546.79
557 6546.79
558 6546.79
559 6544.16
560 6535.42
561 6535.42
562 6535.42
563 6535.42
564 6535.42
565 6535.42
566 6535.42
567 6535.42
568 6535.42
569 6522.53
570 6522.53
571 6522.53
572 6522.53
573 6522.53
574 6522.53
575 6522.53
576 6518.92
577 6518.92
578 6518.92
579 6518.92
580 6518.92
581 6518.92
582 6518.92
583 6518.92
584 6518.92
585 6518.92
586 6489.21
587 6489.21
588 6489.21
589 6489.21
590 6489.21
591 6489.21
592 6489.21
593 6489.21
594 6489.21
595 6489.21
596 6489.21
597 6489.21
598 6489.21
599 6489.21
600 6489.21
601 6489.21
602 6489.21
603 6489.21
604 6489.21
605 6489.21
606 6489.21
607 6489.21
608 6489.21
609 6489.21
610 6471.61
611 6471.61
612 6471.61
613 6174.37
614 6174.37
615 6174.37
616 6174.37
617 6131.06
618 5901.51
619 5901.51
620 5838.91
621 5838.91
622 5838.91
623 5838.91
624 5838.91
625 5838.91
626 5838.91
627 5810.72
628 5810.72
629 5810.72
630 5597.36
631 5597.36
632 5597.36
633 5597.36
634 5597.36
635 5597.36
636 5597.36
637 5597.36
638 5597.36
639 5597.36
640 5597.36
641 5597.36
642 5597.36
643 5597.36
644 5597.36
645 5597.36
646 5597.36
647 5597.36
648 5597.36
649 5597.36
650 5597.36
651 5597.36
652 5597.36
653 5597.36
654 5597.36
655 5463.67
656 5463.67
657 5463.67
658 5463.67
659 5463.67
660 5463.67
661 5463.67
662 5463.67
663 5463.67
664 5463.67
665 5463.67
666 5463.67
667 5463.67
668 5463.67
669 5463.67
670 5463.67
671 5463.67
672 5463.67
673 5463.67
674 5463.67
675 5463.67
676 5463.67
677 5463.67
678 5463.67
679 5463.67
680 5463.67
681 5463.67
682 5463.67
683 5463.67
684 5396.95
685 5396.95
686 5396.95
687 5396.95
688 5396.95
689 5396.95
690 5396.95
691 5396.95
692 5396.95
693 5396.95
694 5396.95
695 5396.95
696 5396.95
697 5396.95
698 5396.95
699 5396.95
700 5396.95
701 5396.95
702 5396.95
703 5396.95
704 5396.95
705 5396.95
706 5396.95
707 5396.95
708 5396.95
709 5396.95
710 5396.95
711 5396.95
712 5396.95
713 5396.95
714 5396.95
715 5396.95
716 5396.95
717 5396.95
718 5396.95
719 5396.95
720 5396.95
721 5396.95
722 5396.95
723 5396.95
724 5396.95
725 5396.95
726 5396.95
727 5396.95
728 5396.95
729 5396.95
730 5396.95
731 5396.95
732 5396.95
733 5396.95
734 5396.95
735 5396.95
736 5396.95
737 5396.95
738 5396.95
739 5396.95
740 5396.95
741 5396.95
742 5396.95
743 5396.95
744 5396.95
745 5396.95
746 5396.95
747 5396.95
748 5396.95
749 5396.95
750 5396.95
751 5396.95
752 5396.95
753 5396.95
754 5396.95
755 5396.95
756 5396.95
757 5396.95
758 5396.95
759 5396.95
760 5396.95
761 5396.95
762 5396.95
763 5396.95
764 5396.95
765 5396.95
766 5396.95
767 5396.95
768 5396.95
769 5396.95
770 5396.95
771 5396.95
772 5396.95
773 5396.95
774 5396.95
775 5396.95
776 5396.95
777 5396.95
778 5396.95
779 5396.95
780 5396.95
781 5396.95
782 5396.95
783 5396.95
784 5396.95
785 5396.95
786 5396.95
787 5396.95
788 5396.95
789 5396.95
790 5396.95
791 5396.95
792 5396.95
793 5396.95
794 5396.95
795 5396.95
796 5396.95
797 5396.95
798 5396.95
799 5396.95
800 5396.95
801 5396.95
802 5396.95
803 5396.95
804 5396.95
805 5396.95
806 5396.95
807 5396.95
808 5396.95
809 5396.95
810 5396.95
811 5396.95
812 5396.95
813 5396.95
814 5396.95
815 5396.95
816 5396.95
817 5396.95
818 5396.95
819 5396.95
820 5396.95
821 5396.95
822 5396.95
823 5396.95
824 5396.95
825 5396.95
826 5396.95
827 5396.95
828 5396.95
829 5396.95
830 5396.95
831 5396.95
832 5396.95
833 5396.95
834 5396.95
835 5396.95
836 5396.95
837 5396.95
838 5396.95
839 5396.95
840 5396.95
841 5396.95
842 5396.95
843 5396.95
844 5396.95
845 5396.95
846 5396.95
847 5396.95
848 5396.95
849 5396.95
850 5396.95
851 5396.95
852 5396.95
853 5396.95
854 5396.95
855 5396.95
856 5396.95
857 5396.95
858 5396.95
859 5396.95
860 5396.95
861 5396.95
862 5396.95
863 5396.95
864 5396.95
865 5396.95
866 5396.95
867 5396.95
868 5396.95
869 5396.95
870 5396.95
871 5396.95
872 5396.95
873 5396.95
874 5396.95
875 5396.95
876 5396.95
877 5396.95
878 5396.95
879 5396.95
880 5396.95
881 5396.95
882 5396.95
883 5396.95
884 5396.95
885 5396.95
886 5396.95
887 5396.95
888 5396.95
889 5396.95
890 5396.95
891 5396.95
892 5396.95
893 5396.95
894 5396.95
895 5396.95
896 5396.95
897 5396.95
898 5396.95
899 5396.95
900 5396.95
901 5396.95
902 5396.95
903 5396.95
904 5396.95
905 5396.95
906 5396.95
907 5396.95
908 5396.95
909 5396.95
910 5396.95
911 5396.95
912 5396.95
913 5396.95
914 5396.95
915 5396.95
916 5396.95
917 5396.95
918 5396.95
919 5396.95
920 5396.95
921 5396.95
922 5396.95
923 5396.95
924 5396.95
925 5394.12
926 5394.12
927 5394.12
928 5394.12
929 5394.12
930 5394.12
931 5394.12
932 5394.12
933 5394.12
934 5394.12
935 5394.12
936 5394.12
937 5394.12
938 5394.12
939 5394.12
940 5394.12
941 5394.12
942 5394.12
943 5394.12
944 5394.12
945 5394.12
946 5394.12
947 5394.12
948 5394.12
949 5394.12
950 5394.12
951 5394.12
952 5394.12
953 5394.12
954 5394.12
955 5394.12
956 5394.12
957 5394.12
958 5394.12
959 5394.12
960 5394.12
961 5394.12
962 5394.12
963 5394.12
964 5394.12
965 5394.12
966 5394.12
967 5394.12
968 5394.12
969 5394.12
970 5394.12
971 5394.12
972 5394.12
973 5394.12
974 5394.12
975 5394.12
976 5394.12
977 5394.12
978 5394.12
979 5394.12
980 5394.12
981 5394.12
982 5394.12
983 5394.12
984 5394.12
985 5394.12
986 5394.12
987 5394.12
988 5394.12
989 5394.12
990 5394.12
991 5394.12
992 5394.12
993 5394.12
994 5394.12
995 5394.12
996 5394.12
997 5394.12
998 5394.12
999 5394.12
12 10 5 1 0 0 